Traveling Salesman Problem/TSP_generados/Aleatorio1620390925_9.tsp
NAME: Aleatorio1620390925_9.tsp
COMMENT: Randomly generated scenario
TYPE: TSP
DIMENSION: 9
EDGE_WEIGHT_TYPE: ATT
NODE_COORD_SECTION
1 1.69 1.88
2 11.81 47.91
3 1.65 12.62
4 40.21 21.58
5 13.01 21.54
6 44.55 34.04
7 23.44 23.64
8 32.49 14.7
9 21.49 44.71
