Traveling Salesman Problem/TSP_generados/Aleatorio1620390925_9.opt.tour
NAME: Aleatorio1620390925_9.opt.tour
COMMENT: Optimal solution for Aleatorio1620390925_9 (152.6491321937243)
TYPE: TOUR
DIMENSION: 9
TOUR_SECTION
1 5 7 8 4 6 9 2 3
-1
EOF
